674 1285
1783 1413
2458 1843
796 1036
578 819
29 221
1943 1295
1798 503
524 2215
1370 2139
1509 263
2307 339
204 2383
2351 404
1358 658
1093 434
1606 457
889 2403
1206 1020
286 1483
2002 1820
1978 222
1080 1948
2233 1952
2436 1508
235 1785
2197 930
1502 622
1915 1286
1405 372
632 659
927 343
2461 2163
267 899
1165 587
1292 2322
94 1979
561 365
1800 1985
1418 2027
277 2467
359 1113
2253 1941
477 190
2282 86
613 2290
924 1382
1883 2314
699 421
687 1308
1724 2133
1187 1640
2489 1090
1220 771
1769 1507
2083 1805
63 278
705 2150
1344 2220
1312 929
557 952
985 317
411 1858
640 505
1270 2194
262 2151
2434 1825
1714 1161
1276 1725
1269 1376
859 109
1612 2342
2359 210
2307 1505
1508 1999
